(set-info :smt-lib-version 2.6)
(set-logic QF_LIA)
(set-info :source |
Generated by: Martin Bromberger
Generated on: 2018-01-06
Generator: https://www.mpi-inf.mpg.de/fileadmin/inf/rg1/Documents/RandomUnboundedSageScript.tar.gz
Application: This is a satisfiable problem with bounded and unbounded directions and, therefore, a good test for the termination/completeness of branch-and-bound solvers.
Publications: M. Bromberger. A Reduction from Unbounded Linear Mixed Arithmetic Problems into Bounded Problems. (Work in progress.)

The benchmarks in this class were randomly generated by a sagemath script and by way of construction they are all satisfiable.
Target solver: CVC4 Mathsat SPASS-IQ YICES Z3
|)
(set-info :license "https://creativecommons.org/licenses/by/4.0/")
(set-info :category "random")
(set-info :status sat)
(declare-fun x0 () Int)
(declare-fun x1 () Int)
(declare-fun x2 () Int)
(declare-fun x3 () Int)
(declare-fun x4 () Int)
(declare-fun x5 () Int)
(declare-fun x6 () Int)
(declare-fun x7 () Int)
(declare-fun x8 () Int)
(declare-fun x9 () Int)

(assert (and 
(<= (- 13) (+ (* (- 1) x1) (+ (* 2 x2) (+ (* 2 x3) (+ (* (- 1) x4) (+ (* (- 2) x5) (+ (* 1 x6) (+ (* 2 x7) (+ (* 2 x8) (* 1 x9) ))))))))) 
(<= 0 (+ (* (- 2) x0) (+ (* 2 x4) (+ (* 1 x5) (+ (* 2 x7) (+ (* 1 x8) (* 2 x9) )))))) 
(<= 6 (+ (* (- 1) x0) (+ (* (- 2) x1) (+ (* 2 x3) (+ (* 2 x5) (+ (* 1 x6) (+ (* 1 x7) (* (- 1) x9) ))))))) 
(<= 6 (+ (* (- 2) x0) (+ (* 1 x1) (+ (* (- 1) x3) (+ (* 1 x4) (* (- 2) x6) ))))) 
(<= (- 2) (+ (* 2 x0) (+ (* (- 2) x3) (+ (* (- 1) x4) (+ (* (- 2) x7) (* 2 x8) ))))) 
(<= (- 14) (+ (* 1 x1) (+ (* 1 x4) (+ (* (- 2) x5) (+ (* 2 x6) (+ (* 1 x7) (+ (* 2 x8) (* 2 x9) ))))))) 
(<= 8 (+ (* 1 x0) (+ (* (- 2) x1) (+ (* (- 1) x2) (+ (* (- 1) x3) (+ (* 2 x5) (+ (* 2 x6) (+ (* (- 2) x7) (* 2 x9) )))))))) 
(<= 0 (+ (* (- 1) x0) (+ (* 1 x2) (+ (* (- 2) x4) (* (- 2) x5) )))) 
(<= 5 (+ (* 1 x2) (+ (* (- 2) x3) (* 2 x5) ))) 
(<= 13 (+ (* 9 x0) (+ (* 4 x1) (+ (* (- 5) x2) (+ (* (- 2) x3) (+ (* (- 3) x4) (+ (* 1 x5) (+ (* (- 7) x6) (+ (* (- 8) x7) (+ (* (- 13) x8) (* (- 9) x9) )))))))))) 
(<= (- 17) (+ (* (- 5) x0) (+ (* (- 3) x1) (+ (* 2 x2) (+ (* 8 x3) (+ (* 5 x4) (+ (* 4 x5) (+ (* 2 x6) (+ (* 9 x7) (+ (* 10 x8) (* (- 4) x9) )))))))))) 
(<= (- 13) (+ (* (- 14) x0) (+ (* 5 x1) (+ (* 5 x2) (+ (* (- 2) x3) (+ (* 3 x4) (+ (* (- 9) x5) (+ (* (- 1) x6) (+ (* 6 x7) (+ (* 9 x8) (* 5 x9) )))))))))) 
(<= (- 51) (+ (* (- 2) x0) (+ (* 8 x1) (+ (* 6 x2) (+ (* (- 2) x3) (+ (* (- 4) x4) (+ (* (- 20) x5) (+ (* (- 6) x6) (+ (* 6 x8) (* 4 x9) ))))))))) 
(<= 133 (+ (* 12 x0) (+ (* (- 11) x1) (+ (* (- 15) x2) (+ (* (- 20) x3) (+ (* (- 2) x4) (+ (* 26 x5) (+ (* 20 x6) (+ (* (- 21) x7) (+ (* (- 36) x8) (* 22 x9) )))))))))) 
(<= (- 155) (+ (* 10 x0) (+ (* (- 6) x1) (+ (* 11 x2) (+ (* 36 x3) (+ (* (- 3) x4) (+ (* (- 8) x5) (+ (* (- 1) x6) (+ (* 24 x7) (+ (* 30 x8) (* (- 29) x9) ))))))))))))
(check-sat)
(exit)